
******************************************************************************
This program contains Ipopt, a library for large-scale nonlinear optimization.
 Ipopt is released as open source code under the Eclipse Public License (EPL).
         For more information visit http://projects.coin-or.org/Ipopt

This version of Ipopt was compiled from source code available at
    https://github.com/IDAES/Ipopt as part of the Institute for the Design of
    Advanced Energy Systems Process Systems Engineering Framework (IDAES PSE
    Framework) Copyright (c) 2018-2019. See https://github.com/IDAES/idaes-pse.

This version of Ipopt was compiled using HSL, a collection of Fortran codes
    for large-scale scientific computation.  All technical papers, sales and
    publicity material resulting from use of the HSL codes within IPOPT must
    contain the following acknowledgement:
        HSL, a collection of Fortran codes for large-scale scientific
        computation. See http://www.hsl.rl.ac.uk.
******************************************************************************

This is Ipopt version 3.13.2, running with linear solver ma27.

Number of nonzeros in equality constraint Jacobian...:      808
Number of nonzeros in inequality constraint Jacobian.:        0
Number of nonzeros in Lagrangian Hessian.............:      702

Total number of variables............................:      351
                     variables with only lower bounds:      108
                variables with lower and upper bounds:      189
                     variables with only upper bounds:        0
Total number of equality constraints.................:      350
Total number of inequality constraints...............:        0
        inequality constraints with only lower bounds:        0
   inequality constraints with lower and upper bounds:        0
        inequality constraints with only upper bounds:        0

iter    objective    inf_pr   inf_du lg(mu)  ||d||  lg(rg) alpha_du alpha_pr  ls
   0  0.0000000e+00 1.05e-01 8.88e-16  -1.0 0.00e+00    -  0.00e+00 0.00e+00   0
   1  8.2247666e-01 1.42e-02 1.70e+03  -1.0 6.29e+04    -  5.02e-01 9.90e-01h  1
   2  8.9009688e-01 3.95e-03 1.50e+03  -1.0 3.27e+03    -  9.20e-01 9.90e-01h  1
   3  8.9127870e-01 2.02e-04 1.52e+02  -1.0 2.81e+02    -  9.90e-01 9.90e-01h  1
   4  8.9174135e-01 4.57e-06 7.75e+02  -1.0 3.35e+02    -  9.90e-01 9.90e-01h  1
   5  8.9262569e-01 2.23e-06 1.19e+04  -1.0 6.00e+02    -  9.90e-01 9.90e-01h  1
   6  8.8915942e-01 5.30e-05 7.02e+07  -3.8 5.80e+03    -  9.67e-01 5.00e-01f  2
   7  8.8779756e-01 3.77e-06 2.69e+04  -3.8 3.26e+03    -  1.00e+00 1.00e+00H  1
In iteration 7, 27 Slacks too small, adjusting variable bounds
   8  8.8779754e-01 2.55e-10 3.01e+08  -3.8 2.00e+00    -  1.00e+00 1.00e+00h  1
   9  8.8779754e-01 3.59e-13 9.37e-05  -3.8 5.23e-03    -  1.00e+00 1.00e+00h  1
iter    objective    inf_pr   inf_du lg(mu)  ||d||  lg(rg) alpha_du alpha_pr  ls
  10  8.8779752e-01 3.19e-13 7.39e+04  -9.0 9.91e+00    -  1.00e+00 1.00e+00H  1
  11  8.8779752e-01 1.37e-13 2.39e-07  -9.0 1.06e-03    -  1.00e+00 5.00e-01h  2
  12  8.8779752e-01 2.04e-13 1.82e-12  -9.0 5.29e-04    -  1.00e+00 1.00e+00h  1

Number of Iterations....: 12

                                   (scaled)                 (unscaled)
Objective...............:   8.8779752423428049e-01    8.8779752423428049e-01
Dual infeasibility......:   1.8189894035458565e-12    1.8189894035458565e-12
Constraint violation....:   2.0428103653102880e-13    2.0428103653102880e-13
Complementarity.........:   9.0909090909091158e-10    9.0909090909091158e-10
Overall NLP error.......:   1.8722096776187558e-10    9.0909090909091158e-10


Number of objective function evaluations             = 22
Number of objective gradient evaluations             = 13
Number of equality constraint evaluations            = 22
Number of inequality constraint evaluations          = 0
Number of equality constraint Jacobian evaluations   = 13
Number of inequality constraint Jacobian evaluations = 0
Number of Lagrangian Hessian evaluations             = 12
Total CPU secs in IPOPT (w/o function evaluations)   =      0.020
Total CPU secs in NLP function evaluations           =      0.199

EXIT: Optimal Solution Found.
